nServices=10;
nDrivers=15;
nBuses=15;
maxBuses=12;
startingTime=[166 82 191 47 11 85 45 129 159 167];
durationTime=[27 28 28 12 20 23 29 12 15 10];
durationDist=[60 55 28 30 23 50 37 46 26 37];
passengers=[20 3 22 4 5 6 12 19 13 7];
capacity=[11 12 20 26 16 14 17 27 30 16 28 18 11 11 28];
costTime=[7 10 6 7 9 7 7 9 10 9 9 8 9 7 10];
costDist=[3 4 6 2 3 4 4 6 6 4 2 2 2 2 5];
maxTime=[55 30 34 42 28 44 41 24 20 55 29 54 37 22 35];
costBM=[6 6 6 7 5 5 5 8 5 7 6 8 6 5 6];
costEM=[10 8 10 11 8 9 9 12 8 9 9 9 12 10 11];
BM=[17 13 15 19 19 19 12 19 18 13 14 18 10 15 11];
